set VV := 0 1 2 3 4 5 6 7 8 9 10 11 12 13 14 ;
set VS := 0 1 2 3 4 5 6 7 8 9 10 11 12 13 14 15 16 17 18 19 20 21 22 23 24 25 26 27 28 29 30 31 32 33 ;
param cv := 
0 14
1 21
2 25
3 19
4 25
5 14
6 13
7 19
8 18
9 14
10 24
11 20
12 16
13 24
14 14
;
param cs := 
0 20
1 27
2 30
3 32
4 34
5 25
6 33
7 39
8 36
9 33
10 35
11 40
12 26
13 20
14 20
15 24
16 25
17 28
18 21
19 31
20 23
21 29
22 28
23 27
24 40
25 24
26 31
27 35
28 23
29 33
30 33
31 29
32 30
33 33
;
param bv:	 0 1 2 3 4 5 6 7 8 9 10 11 12 13 14 := 
		0 0 13 0 0 15 0 0 0 0 0 0 0 0 25 19 
		1 0 0 0 0 0 0 0 0 0 0 13 0 0 18 0 
		2 0 0 0 17 23 0 0 0 0 0 0 0 0 0 0 
		3 0 0 0 0 0 0 0 0 0 0 0 0 0 0 0 
		4 0 0 0 0 0 25 22 0 0 0 0 21 0 0 0 
		5 0 0 0 0 0 0 17 0 21 0 0 0 0 0 0 
		6 0 0 0 0 0 0 0 0 0 0 0 0 0 0 0 
		7 0 0 0 0 0 0 0 0 0 0 0 0 0 0 16 
		8 0 0 0 0 0 0 0 0 0 0 0 0 0 0 0 
		9 0 0 0 0 0 0 0 0 0 0 0 0 17 0 25 
		10 0 0 0 0 0 0 0 0 0 0 0 0 0 0 0 
		11 0 0 0 0 0 0 0 0 0 0 0 0 0 0 0 
		12 0 0 0 0 0 0 0 0 0 0 0 0 0 0 17 
		13 0 0 0 0 0 0 0 0 0 0 0 0 0 0 10 
		14 0 0 0 0 0 0 0 0 0 0 0 0 0 0 0 
;
param bs:	 0 1 2 3 4 5 6 7 8 9 10 11 12 13 14 15 16 17 18 19 20 21 22 23 24 25 26 27 28 29 30 31 32 33 := 
		0 0 0 0 0 0 0 0 0 0 0 0 0 0 0 0 0 0 0 0 0 0 0 0 0 0 21 0 0 0 0 39 0 23 0 
		1 0 0 0 0 0 0 0 0 0 0 0 0 0 0 0 0 0 0 0 20 0 0 0 0 0 30 0 0 0 40 0 0 32 28 
		2 0 0 0 37 0 28 0 0 28 0 0 0 0 35 0 0 0 0 0 0 0 0 0 0 0 0 0 0 0 0 0 0 34 0 
		3 0 0 37 0 0 0 0 0 0 0 0 0 28 0 0 0 0 0 0 0 0 0 0 0 0 0 0 0 0 0 0 0 0 29 
		4 0 0 0 0 0 0 0 0 0 0 0 0 0 0 0 0 0 0 0 0 0 0 0 33 0 0 0 0 0 0 0 0 27 0 
		5 0 0 28 0 0 0 0 0 0 0 0 0 28 0 0 0 0 0 25 0 0 0 0 0 0 0 0 0 0 0 0 0 0 0 
		6 0 0 0 0 0 0 0 0 0 0 0 0 0 0 0 39 28 0 0 0 0 0 0 0 0 0 0 0 0 0 0 0 0 0 
		7 0 0 0 0 0 0 0 0 0 0 0 0 0 0 0 0 0 0 0 0 0 0 0 0 0 0 0 0 39 0 0 23 0 0 
		8 0 0 28 0 0 0 0 0 0 0 21 0 20 0 0 0 22 0 33 0 30 0 0 0 0 0 0 0 0 0 0 0 0 0 
		9 0 0 0 0 0 0 0 0 0 0 0 0 0 0 0 0 0 0 0 0 0 0 0 0 0 0 37 0 0 0 0 0 0 0 
		10 0 0 0 0 0 0 0 0 21 0 0 0 0 26 0 0 0 0 0 0 35 0 0 0 0 0 0 0 0 24 0 0 0 37 
		11 0 0 0 0 0 0 0 0 0 0 0 0 25 0 0 0 0 0 0 0 0 0 0 0 0 0 0 0 0 40 0 0 0 0 
		12 0 0 0 28 0 28 0 0 20 0 0 25 0 33 0 37 0 0 0 0 0 0 0 0 0 0 0 0 0 0 0 39 0 0 
		13 0 0 35 0 0 0 0 0 0 0 26 0 33 0 0 20 0 0 0 0 0 0 0 0 25 0 0 0 0 0 0 0 0 0 
		14 0 0 0 0 0 0 0 0 0 0 0 0 0 0 0 0 0 0 0 0 0 40 0 0 0 0 0 0 0 0 0 0 0 0 
		15 0 0 0 0 0 0 39 0 0 0 0 0 37 20 0 0 0 0 0 0 0 0 0 0 0 0 0 0 26 0 0 0 0 0 
		16 0 0 0 0 0 0 28 0 22 0 0 0 0 0 0 0 0 0 0 0 0 0 0 0 0 0 0 26 0 0 0 26 0 0 
		17 0 0 0 0 0 0 0 0 0 0 0 0 0 0 0 0 0 0 0 0 0 0 0 0 0 0 31 0 0 0 0 0 0 0 
		18 0 0 0 0 0 25 0 0 33 0 0 0 0 0 0 0 0 0 0 0 0 0 0 36 0 0 0 0 0 0 0 0 0 0 
		19 0 20 0 0 0 0 0 0 0 0 0 0 0 0 0 0 0 0 0 0 0 0 0 0 0 0 0 0 0 23 0 0 0 0 
		20 0 0 0 0 0 0 0 0 30 0 35 0 0 0 0 0 0 0 0 0 0 0 0 0 0 0 0 0 0 0 0 0 0 0 
		21 0 0 0 0 0 0 0 0 0 0 0 0 0 0 40 0 0 0 0 0 0 0 0 0 0 0 0 0 0 0 0 0 25 0 
		22 0 0 0 0 0 0 0 0 0 0 0 0 0 0 0 0 0 0 0 0 0 0 0 0 0 27 0 0 39 36 0 0 0 0 
		23 0 0 0 0 33 0 0 0 0 0 0 0 0 0 0 0 0 0 36 0 0 0 0 0 0 0 36 0 0 0 0 0 0 0 
		24 0 0 0 0 0 0 0 0 0 0 0 0 0 25 0 0 0 0 0 0 0 0 0 0 0 0 0 0 0 0 0 0 22 0 
		25 21 30 0 0 0 0 0 0 0 0 0 0 0 0 0 0 0 0 0 0 0 0 27 0 0 0 22 0 0 0 0 0 0 0 
		26 0 0 0 0 0 0 0 0 0 37 0 0 0 0 0 0 0 31 0 0 0 0 0 36 0 22 0 0 0 0 0 0 0 0 
		27 0 0 0 0 0 0 0 0 0 0 0 0 0 0 0 0 26 0 0 0 0 0 0 0 0 0 0 0 0 0 0 0 0 0 
		28 0 0 0 0 0 0 0 39 0 0 0 0 0 0 0 26 0 0 0 0 0 0 39 0 0 0 0 0 0 0 0 26 0 0 
		29 0 40 0 0 0 0 0 0 0 0 24 40 0 0 0 0 0 0 0 23 0 0 36 0 0 0 0 0 0 0 33 0 38 0 
		30 39 0 0 0 0 0 0 0 0 0 0 0 0 0 0 0 0 0 0 0 0 0 0 0 0 0 0 0 0 33 0 0 0 0 
		31 0 0 0 0 0 0 0 23 0 0 0 0 39 0 0 0 26 0 0 0 0 0 0 0 0 0 0 0 26 0 0 0 0 36 
		32 23 32 34 0 27 0 0 0 0 0 0 0 0 0 0 0 0 0 0 0 0 25 0 0 22 0 0 0 0 38 0 0 0 0 
		33 0 28 0 29 0 0 0 0 0 0 37 0 0 0 0 0 0 0 0 0 0 0 0 0 0 0 0 0 0 0 0 36 0 0 
;
